InboundTrucks  = 12;
OutboundTrucks = 8;
InboundDoors   = 4;
OutboundDoors  = 4;
ReleaseTime    = [74,108,24,116,69,118,45,59,6,84,64,27];
UnloadTime     = [24,28,41,23,31,38,14,26,22,20,15,38];
LoadTime       = [29,22,16,11,20,30,15,12];
TransferTime   = [| 0,0,37,0,49,0,0,0 | 0,0,0,0,0,0,16,0 | 33,46,0,0,0,0,0,0 | 0,0,0,0,42,0,0,0 | 0,15,46,0,0,0,0,49 | 0,0,0,21,0,45,0,0 | 19,0,0,45,0,0,0,30 | 19,0,17,0,0,0,27,0 | 0,50,0,0,0,31,27,0 | 47,0,0,0,0,0,0,0 | 0,0,17,17,0,0,0,0 | 0,0,0,0,44,0,0,0 |];
